Route #1: 1 1 6 11 13 8 5 21 7 12 18 19 20 22 17 14 15 16 3 2 1 
Route #2: 1 10 1 
Route #3: 1 9 4 1 

Cost 703.898
Time 0.1086


 * Another infos *

 Iterations: 23 Time: 0.1086 sec - 0.0018 min - 0.0000 horas
0.0000 h 0.0018 min
Problem dimension: 23
